70
150
105	1
104	4
103	1
100	4
98	4
97	2
96	5
95	1
94	4
93	4
92	3
91	5
89	5
88	2
87	2
86	4
85	8
84	1
83	4
82	2
81	3
80	3
79	5
78	1
77	2
76	2
75	6
74	1
73	2
72	3
70	1
69	1
68	4
67	3
66	6
65	3
64	3
63	2
62	4
61	3
60	4
59	3
58	2
57	1
56	2
55	1
54	3
53	3
52	4
51	4
50	3
49	2
48	3
47	3
46	4
45	2
44	4
43	1
42	1
41	4
39	1
38	1
37	2
36	1
35	3
34	2
33	1
32	2
31	3
30	6
